NAME : ClusterId_1027 
COMMENT : (Gillet and Johnson) 
TYPE : CVRP 
DIMENSION : 9 
EDGE_WEIGHT_TYPE : EUC_2D 
CAPACITY : 500 
NODE_COORD_SECTION 
1027 4175 255 
389 4131 215 
120 4480 3 
705 4272 233 
551 4789 71 
137 4198 598 
458 4591 310 
821 4516 410 
536 4302 702 
DEMAND_SECTION 
1027 582
389 39
120 32
705 45
551 45
137 33
458 50
821 27
536 50
DEPOT_SECTION 
1027
 -1
EOF